Running MiniSat on FULL_RUN_MINISAT\22b4cf412c811872d6ba5078106aeb6c-j3037_10_rggt_b.cnf... 
============================[ Problem Statistics ]=============================
|                                                                             |
|  Number of variables:         14174                                         |
|  Number of clauses:           66704                                         |
|  Parse time:                   0.19 s                                       |
|                                                                             |
============================[ Search Statistics ]==============================
| Conflicts |          ORIGINAL         |          LEARNT          | Progress |
|           |    Vars  Clauses Literals |    Limit  Clauses Lit/Cl |          |
===============================================================================
|       100 |   13639    64905   167655 |    23798      100     14 |  3.775 % |
|       250 |   13639    64905   167655 |    26178      250     19 |  3.775 % |
|       475 |   13639    64905   167655 |    28796      475     18 |  3.775 % |
|       812 |   13639    64905   167655 |    31675      812     20 |  3.775 % |
|      1318 |   13639    64905   167655 |    34843     1318     21 |  3.775 % |
|      2077 |   13639    64905   167655 |    38327     2077     23 |  3.775 % |
|      3216 |   13639    64905   167655 |    42160     3216     23 |  3.775 % |
|      4924 |   13639    64905   167655 |    46376     4924     24 |  3.775 % |
|      7486 |   13639    64905   167655 |    51014     7486     24 |  3.775 % |
|     11330 |   13639    64905   167655 |    56115    11330     26 |  3.775 % |
|     17096 |   13639    64905   167655 |    61727    17096     27 |  3.775 % |
|     25745 |   13639    64905   167655 |    67899    25745     27 |  3.775 % |
|     38719 |   13639    64905   167655 |    74689    38719     28 |  3.775 % |
Timeout reached. Terminating MiniSat... 
Finished MiniSat on FULL_RUN_MINISAT\29e61b1317804fb897e84237613d42bb-worker_30_60_25_0.9.cnf 
